qbf_easy_train/easy_1859_SAT.qdimacs
p cnf 18 37
a 8 2 4 0
e 1 3 5 6 7 9 10 11 12 13 14 15 16 17 18 0
3 1 0
3 -2 0
-1 2 -3 0
-4 5 -6 0
4 -5 -6 0
-4 -5 6 0
4 5 6 0
-7 -3 0
-7 6 0
3 -6 7 0
-9 8 0
-9 -4 0
-8 4 9 0
11 -10 0
11 -8 0
10 8 -11 0
12 13 -14 0
-12 -13 -14 0
12 -13 14 0
-12 13 14 0
-12 -14 -15 0
12 14 -15 0
-12 14 15 0
12 -14 15 0
16 11 0
16 -15 0
-11 15 -16 0
-17 9 0
-17 16 0
-9 -16 17 0
18 -7 0
18 17 0
7 -17 -18 0
7 14 -17 -6 16 0
-2 -16 -4 -5 14 0
5 -10 -3 0
18 0
