sat_easy_train/easy_1859_SAT.dimacs
p cnf 112 364
-1 -2 -3 0
1 2 -3 0
-1 2 3 0
1 -2 3 0
5 3 0
5 4 0
-3 -4 -5 0
8 6 0
8 7 0
-6 -7 -8 0
10 8 0
10 -9 0
-8 9 -10 0
12 -11 0
12 8 0
11 -8 -12 0
-15 -13 0
-15 14 0
13 -14 15 0
-16 12 0
-16 -15 0
-12 15 16 0
-17 -10 0
-17 16 0
10 -16 17 0
-17 -18 -19 0
17 18 -19 0
-17 18 19 0
17 -18 19 0
-20 -21 0
20 -21 0
-22 -9 0
-22 -14 0
9 14 22 0
21 -22 -23 0
-21 22 -23 0
21 22 23 0
-21 -22 23 0
-4 24 0
4 24 0
-25 -23 0
-25 -24 0
23 24 25 0
-19 25 -26 0
19 -25 -26 0
-19 -25 26 0
19 25 26 0
-27 18 -28 0
27 -18 -28 0
-27 -18 28 0
27 18 28 0
30 -8 0
30 -2 0
8 2 -30 0
-32 -20 0
-32 31 0
20 -31 32 0
30 -32 -33 0
-30 32 -33 0
30 32 33 0
-30 -32 33 0
34 -29 0
34 33 0
29 -33 -34 0
-28 34 -35 0
28 -34 -35 0
-28 -34 35 0
28 34 35 0
-36 26 0
-36 35 0
-26 -35 36 0
-37 5 0
-37 -36 0
-5 36 37 0
38 16 0
38 12 0
-16 -12 -38 0
38 39 0
-38 39 0
20 -11 -40 0
-20 11 -40 0
20 11 40 0
-20 -11 40 0
20 -7 -41 0
-20 7 -41 0
20 7 41 0
-20 -7 41 0
40 41 -42 0
-40 -41 -42 0
40 -41 42 0
-40 41 42 0
-43 30 0
-43 42 0
-30 -42 43 0
-45 -20 0
-45 -44 0
20 44 45 0
46 -18 0
46 -45 0
18 45 -46 0
-47 -43 0
-47 -46 0
43 46 47 0
48 3 0
48 -21 0
-3 21 -48 0
-15 -13 -49 0
15 13 -49 0
-15 13 49 0
15 -13 49 0
50 -27 0
50 -11 0
27 11 -50 0
-49 50 -51 0
49 -50 -51 0
-49 -50 51 0
49 50 51 0
52 51 0
52 29 0
-51 -29 -52 0
53 -48 0
53 52 0
48 -52 -53 0
54 -47 0
54 -53 0
47 53 -54 0
39 -54 -55 0
-39 54 -55 0
39 54 55 0
-39 -54 55 0
-56 -22 0
-56 22 0
13 51 -57 0
-13 -51 -57 0
13 -51 57 0
-13 51 57 0
-58 -31 0
-58 57 0
31 -57 58 0
-59 56 0
-59 -58 0
-56 58 59 0
4 -6 -60 0
-4 6 -60 0
4 6 60 0
-4 -6 60 0
-7 60 -61 0
7 -60 -61 0
-7 -60 61 0
7 60 61 0
62 -20 0
62 61 0
20 -61 -62 0
4 62 -63 0
-4 -62 -63 0
4 -62 63 0
-4 62 63 0
-64 30 0
-64 -44 0
-30 44 64 0
65 -63 0
65 -64 0
63 64 -65 0
-59 -65 -66 0
59 65 -66 0
-59 65 66 0
59 -65 66 0
-55 -66 -67 0
55 66 -67 0
-55 66 67 0
55 -66 67 0
-68 37 0
-68 -67 0
-37 67 68 0
-69 17 0
-69 49 0
-17 -49 69 0
70 60 0
70 38 0
-60 -38 -70 0
-71 14 0
-71 70 0
-14 -70 71 0
72 -14 0
72 -50 0
14 50 -72 0
-73 -71 0
-73 72 0
71 -72 73 0
-74 -69 0
-74 73 0
69 -73 74 0
75 68 0
75 74 0
-68 -74 -75 0
8 41 -76 0
-8 -41 -76 0
8 -41 76 0
-8 41 76 0
50 29 -77 0
-50 -29 -77 0
50 -29 77 0
-50 29 77 0
78 18 0
78 -14 0
-18 14 -78 0
-62 40 -79 0
62 -40 -79 0
-62 -40 79 0
62 40 79 0
-78 -79 -80 0
78 79 -80 0
-78 79 80 0
78 -79 80 0
-81 -77 0
-81 80 0
77 -80 81 0
-82 76 0
-82 -81 0
-76 81 82 0
83 21 0
83 -14 0
-21 14 -83 0
84 -10 0
84 -44 0
10 44 -84 0
11 7 -85 0
-11 -7 -85 0
11 -7 85 0
-11 7 85 0
-86 84 0
-86 -85 0
-84 85 86 0
87 -20 0
87 44 0
20 -44 -87 0
-86 -87 -88 0
86 87 -88 0
-86 87 88 0
86 -87 88 0
-83 -88 -89 0
83 88 -89 0
-83 88 89 0
83 -88 89 0
-90 -82 0
-90 89 0
82 -89 90 0
91 2 0
91 -62 0
-2 62 -91 0
-92 -90 0
-92 -91 0
90 91 92 0
93 -3 0
93 2 0
3 -2 -93 0
45 -60 -94 0
-45 60 -94 0
45 60 94 0
-45 -60 94 0
-95 -94 0
-95 57 0
94 -57 95 0
-96 93 0
-96 95 0
-93 -95 96 0
-92 -96 -97 0
92 96 -97 0
-92 96 97 0
92 -96 97 0
98 94 0
98 3 0
-94 -3 -98 0
50 -11 -100 0
-50 11 -100 0
50 11 100 0
-50 -11 100 0
-101 -99 0
-101 100 0
99 -100 101 0
102 -98 0
102 101 0
98 -101 -102 0
97 102 -103 0
-97 -102 -103 0
97 -102 103 0
-97 102 103 0
104 -7 0
104 -29 0
7 29 -104 0
-105 11 0
-105 -13 0
-11 13 105 0
-106 7 0
-106 14 0
-7 -14 106 0
107 106 0
107 -1 0
-106 1 -107 0
108 -12 0
108 107 0
12 -107 -108 0
105 -108 -109 0
-105 108 -109 0
105 108 109 0
-105 -108 109 0
110 -104 0
110 109 0
104 -109 -110 0
111 -103 0
111 -110 0
103 110 -111 0
-75 -111 -112 0
75 111 -112 0
-75 111 112 0
75 -111 112 0
-71 -7 -36 77 -18 -90 0
71 57 19 -53 -83 0
-109 -93 82 -2 -63 0
104 -18 67 11 28 98 0
100 -66 -19 13 0
-79 -65 -22 18 0
45 -108 -39 23 94 0
6 -30 111 -46 -32 0
-8 -15 0
-14 48 -55 0
-9 112 28 -3 -13 0
60 13 -111 0
68 98 -97 0
87 -60 -103 0
52 -25 40 47 -88 24 0
65 -6 -1 0
48 65 110 15 75 0
41 -93 -35 60 32 -40 0
-91 49 -7 85 0
-68 -56 -19 10 0
104 -44 -21 -56 -62 0
109 -73 0
77 -75 2 0
-112 73 -33 -26 -30 0
65 -37 3 -79 -64 0
-46 -109 6 33 38 0
5 22 46 67 35 -97 0
83 -11 24 -107 -50 0
26 80 -92 -24 -88 0
111 66 -7 0
-60 53 -92 -86 65 0
-9 -84 -98 49 0
97 -3 47 32 -82 0
106 28 23 -71 -84 -40 0
55 -106 59 0
-85 78 0
-68 47 -24 -52 -65 -28 0
85 64 0
-68 15 0
87 13 25 0
-59 23 -75 -42 -36 0
-100 -101 -39 -44 -2 66 0
106 72 0
-106 -53 -110 0
76 88 -48 94 0
24 105 -107 -98 69 47 0
34 18 -111 72 71 0
112 0
